Minimize
  - 4 y_0 - 5 y_1 - 12 y_2 - 5 y_3 - 9 y_4 - 6 y_5 - 11 y_6 - 12 y_7
   - 10 y_8 - 10 y_9 - 9 y_10 - 13 y_11 - 6 y_12 - 5 y_13 - 13 y_14
   - 7 y_15 - 4 y_16 - 12 y_17 - 8 y_18 - 6 y_19 - 5 y_20 - 11 y_21
   - 9 y_22 - 13 y_23 - 13 y_24 - 11 y_25 - 12 y_26 - 6 y_27 - 12 y_28
   - 9 y_29 - 11 y_30 - 9 y_31 - 2 y_32 - 8 y_33 - 3 y_34 - 5 y_35 - 5 y_36
   - 11 y_37 - 8 y_38 - 5 y_39 - 12 y_40 - 11 y_41 - 10 y_42 - 4 y_43
   - 7 y_44 - 4 y_45 - 10 y_46 - 8 y_47 - 8 y_48 - 7 y_49 - 7 y_50
   - 12 y_51 - 7 y_52 - 4 y_53 - 11 y_54 - 4 y_55 - y_56 - 8 y_57 - 10 y_58
   - 5 y_59 - 6 y_60 - 3 y_61 - 7 y_62 - 11 y_63 - 8 y_64 - 9 y_65 - 8 y_66
   - 9 y_67 - 10 y_68 - 12 y_69 - 11 y_70 - 3 y_71 - 2 y_72 - 10 y_73
   - 8 y_75 - 11 y_76 - 7 y_77 - 10 y_78 - 9 y_79 - 12 y_80 - 9 y_81
   - 12 y_82 - 8 y_83 - 9 y_84 - y_85 - 9 y_86 - 8 y_87 - 8 y_88 - 5 y_89
   - 10 y_90 - 2 y_91 - 7 y_92 - 4 y_93 - 5 y_94 - 3 y_95 - 11 y_96
   - 7 y_97 - 6 y_98 - 9 y_99 + 784 Constant
Subject To
 c_0: y_21 = 1
 c_1_0: y_0 + y_13 + y_35 >= 1
 c_1_1: y_1 + y_94 >= 1
 c_1_2: y_2 + y_6 + y_7 + y_14 + y_25 + y_28 + y_51 + y_69 >= 1
 c_1_3: y_3 + y_39 + y_55 + y_89 >= 1
 c_1_4: y_4 + y_22 + y_54 + y_63 >= 1
 c_1_5: y_5 + y_16 + y_50 + y_77 + y_92 + y_97 >= 1
 c_1_6: y_2 + y_6 + y_14 + y_25 + y_51 + y_80 >= 1
 c_1_7: y_2 + y_7 + y_25 + y_28 + y_51 + y_69 >= 1
 c_1_8: y_8 + y_67 >= 1
 c_1_9: y_9 + y_57 >= 1
 c_1_10: y_10 + y_57 >= 1
 c_1_11: y_11 + y_24 + y_37 + y_40 >= 1
 c_1_12: y_12 + y_13 + y_15 + y_44 + y_59 >= 1
 c_1_13: y_0 + y_12 + y_13 + y_35 + y_60 >= 1
 c_1_14: y_2 + y_6 + y_14 + y_23 + y_51 + y_69 + y_80 >= 1
 c_1_15: y_12 + y_15 + y_44 + y_87 + y_88 >= 1
 c_1_16: y_5 + y_16 + y_45 + y_55 >= 1
 c_1_17: y_17 + y_21 + y_58 >= 1
 c_1_18: y_18 + y_31 + y_38 + y_99 >= 1
 c_1_19: y_19 >= 1
 c_1_20: y_20 + y_36 >= 1
 c_1_21: y_17 + y_21 + y_58 >= 1
 c_1_22: y_4 + y_22 + y_54 + y_63 >= 1
 c_1_23: y_14 + y_23 + y_51 + y_80 >= 1
 c_1_24: y_11 + y_24 + y_26 + y_37 >= 1
 c_1_25: y_2 + y_6 + y_7 + y_25 + y_28 + y_51 + y_69 >= 1
 c_1_26: y_24 + y_26 + y_37 + y_54 + y_63 >= 1
 c_1_27: y_27 + y_39 >= 1
 c_1_28: y_2 + y_7 + y_25 + y_28 + y_69 >= 1
 c_1_29: y_29 >= 1
 c_1_30: y_30 + y_76 >= 1
 c_1_31: y_18 + y_31 + y_99 >= 1
 c_1_32: y_32 + y_34 + y_95 >= 1
 c_1_33: y_33 + y_38 + y_79 >= 1
 c_1_34: y_32 + y_34 + y_53 + y_94 >= 1
 c_1_35: y_0 + y_13 + y_35 + y_60 >= 1
 c_1_36: y_20 + y_36 + y_98 >= 1
 c_1_37: y_11 + y_24 + y_26 + y_37 + y_40 + y_54 >= 1
 c_1_38: y_18 + y_33 + y_38 + y_79 >= 1
 c_1_39: y_3 + y_27 + y_39 >= 1
 c_1_40: y_11 + y_37 + y_40 >= 1
 c_1_41: y_41 + y_80 >= 1
 c_1_42: y_42 + y_65 >= 1
 c_1_43: y_43 + y_45 + y_61 + y_72 >= 1
 c_1_44: y_12 + y_15 + y_44 + y_87 + y_88 >= 1
 c_1_45: y_16 + y_43 + y_45 >= 1
 c_1_46: y_46 + y_48 + y_70 + y_73 + y_96 >= 1
 c_1_47: y_47 + y_75 + y_86 >= 1
 c_1_48: y_46 + y_48 + y_81 >= 1
 c_1_49: y_49 + y_64 + y_89 >= 1
 c_1_50: y_5 + y_50 + y_77 + y_92 + y_97 >= 1
 c_1_51: y_2 + y_6 + y_7 + y_14 + y_23 + y_25 + y_51 + y_69 + y_80 >= 1
 c_1_52: y_52 + y_62 + y_77 + y_92 >= 1
 c_1_53: y_34 + y_53 + y_94 >= 1
 c_1_54: y_4 + y_22 + y_26 + y_37 + y_54 + y_63 >= 1
 c_1_55: y_3 + y_16 + y_55 + y_89 >= 1
 c_1_56: y_56 + y_74 + y_85 + y_91 >= 1
 c_1_57: y_9 + y_10 + y_57 >= 1
 c_1_58: y_17 + y_21 + y_58 >= 1
 c_1_59: y_12 + y_59 + y_71 >= 1
 c_1_60: y_13 + y_35 + y_60 >= 1
 c_1_61: y_43 + y_61 + y_72 + y_93 >= 1
 c_1_62: y_52 + y_62 + y_66 + y_77 + y_92 >= 1
 c_1_63: y_4 + y_22 + y_26 + y_54 + y_63 >= 1
 c_1_64: y_49 + y_64 + y_78 >= 1
 c_1_65: y_42 + y_65 + y_67 + y_87 >= 1
 c_1_66: y_62 + y_66 + y_68 + y_77 + y_92 + y_97 >= 1
 c_1_67: y_8 + y_65 + y_67 + y_87 + y_88 >= 1
 c_1_68: y_66 + y_68 >= 1
 c_1_69: y_2 + y_7 + y_14 + y_25 + y_28 + y_51 + y_69 >= 1
 c_1_70: y_46 + y_70 + y_73 + y_96 >= 1
 c_1_71: y_59 + y_71 >= 1
 c_1_72: y_43 + y_61 + y_72 + y_85 + y_91 >= 1
 c_1_73: y_46 + y_70 + y_73 + y_96 >= 1
 c_1_74: y_56 + y_74 + y_85 + y_91 >= 1
 c_1_75: y_47 + y_75 + y_86 >= 1
 c_1_76: y_30 + y_76 >= 1
 c_1_77: y_5 + y_50 + y_52 + y_62 + y_66 + y_77 + y_92 + y_97 >= 1
 c_1_78: y_64 + y_78 >= 1
 c_1_79: y_33 + y_38 + y_79 + y_90 >= 1
 c_1_80: y_6 + y_14 + y_23 + y_41 + y_51 + y_80 >= 1
 c_1_81: y_48 + y_81 + y_84 >= 1
 c_1_82: y_82 >= 1
 c_1_83: y_83 >= 1
 c_1_84: y_81 + y_84 >= 1
 c_1_85: y_56 + y_72 + y_74 + y_85 + y_91 >= 1
 c_1_86: y_47 + y_75 + y_86 >= 1
 c_1_87: y_15 + y_44 + y_65 + y_67 + y_87 + y_88 >= 1
 c_1_88: y_15 + y_44 + y_67 + y_87 + y_88 >= 1
 c_1_89: y_3 + y_49 + y_55 + y_89 >= 1
 c_1_90: y_79 + y_90 >= 1
 c_1_91: y_56 + y_72 + y_74 + y_85 + y_91 >= 1
 c_1_92: y_5 + y_50 + y_52 + y_62 + y_66 + y_77 + y_92 + y_97 >= 1
 c_1_93: y_61 + y_93 >= 1
 c_1_94: y_1 + y_34 + y_53 + y_94 >= 1
 c_1_95: y_32 + y_95 >= 1
 c_1_96: y_46 + y_70 + y_73 + y_96 >= 1
 c_1_97: y_5 + y_50 + y_66 + y_77 + y_92 + y_97 >= 1
 c_1_98: y_36 + y_98 >= 1
 c_1_99: y_18 + y_31 + y_99 >= 1
Bounds
 Constant = 1
Binaries
 y_0 y_1 y_2 y_3 y_4 y_5 y_6 y_7 y_8 y_9 y_10 y_11 y_12 y_13 y_14 y_15 y_16
 y_17 y_18 y_19 y_20 y_21 y_22 y_23 y_24 y_25 y_26 y_27 y_28 y_29 y_30 y_31
 y_32 y_33 y_34 y_35 y_36 y_37 y_38 y_39 y_40 y_41 y_42 y_43 y_44 y_45 y_46
 y_47 y_48 y_49 y_50 y_51 y_52 y_53 y_54 y_55 y_56 y_57 y_58 y_59 y_60 y_61
 y_62 y_63 y_64 y_65 y_66 y_67 y_68 y_69 y_70 y_71 y_72 y_73 y_74 y_75 y_76
 y_77 y_78 y_79 y_80 y_81 y_82 y_83 y_84 y_85 y_86 y_87 y_88 y_89 y_90 y_91
 y_92 y_93 y_94 y_95 y_96 y_97 y_98 y_99
End
